182,19
65,55
14,6
183,24
10,75
137,65
139,44
66,56
64,67
33,97
65,97
53,63
42,36
119,51
117,65
34,66
56,53
191,50
101,8
77,62
105,32
116,22
177,90
35,75
199,35
80,29
164,22
131,21
23,70
142,30
91,29
172,21
45,62
95,11
189,33
67,100
1,22
165,75
94,88
62,57
130,29
97,84
197,43
174,19
97,35
164,26
149,64
181,29
73,70
83,51
